\ENCODING=ISO-8859-1
\Problem name: SVM

Minimize
 obj: 0.001 ksi0 + 0.001 ksi1 + 0.001 ksi2 + 0.001 ksi3 + 0.001 ksi4
      + 0.001 ksi5 + 0.001 ksi6 + 0.001 ksi7 + 0.001 ksi8 + 0.001 ksi9
      + 0.001 ksi10 + 0.001 ksi11 + 0.001 ksi12 + 0.001 ksi13 + 0.001 ksi14
      + 0.001 ksi15 + 0.001 ksi16 + 0.001 ksi17 + 0.001 ksi18 + 0.001 ksi19
      + 0.001 ksi20 + 0.001 ksi21 + 0.001 ksi22 + 0.001 ksi23 + 0.001 ksi24
      + 0.001 ksi25 + 0.001 ksi26 + 0.001 ksi27 + 0.001 ksi28 + 0.001 ksi29
      + 0.001 ksi30 + 0.001 ksi31 + 0.001 ksi32 + 0.001 ksi33 + 0.001 ksi34
      + 0.001 ksi35 + 0.001 ksi36 + 0.001 ksi37 + 0.001 ksi38 + 0.001 ksi39
      + 0.001 ksi40 + 0.001 ksi41 + 0.001 ksi42 + 0.001 ksi43 + 0.001 ksi44
      + 0.001 ksi45 + 0.001 ksi46 + 0.001 ksi47 + 0.001 ksi48 + 0.001 ksi49
      + 0.001 ksi50 + 0.001 ksi51 + 0.001 ksi52 + 0.001 ksi53 + 0.001 ksi54
      + 0.001 ksi55 + 0.001 ksi56 + 0.001 ksi57 + 0.001 ksi58 + 0.001 ksi59
      + 0.001 ksi60 + 0.001 ksi61 + 0.001 ksi62 + 0.001 ksi63 + 0.001 ksi64
      + 0.001 ksi65 + 0.001 ksi66 + 0.001 ksi67 + 0.001 ksi68 + 0.001 ksi69
      + 0.001 ksi70 + 0.001 ksi71 + 0.001 ksi72 + 0.001 ksi73 + 0.001 ksi74
      + 0.001 ksi75 + 0.001 ksi76 + 0.001 ksi77 + 0.001 ksi78 + 0.001 ksi79
      + 0.001 ksi80 + 0.001 ksi81 + 0.001 ksi82 + 0.001 ksi83 + 0.001 ksi84
      + 0.001 ksi85 + 0.001 ksi86 + 0.001 ksi87 + 0.001 ksi88 + 0.001 ksi89
      + 0.001 ksi90 + 0.001 ksi91 + 0.001 ksi92 + 0.001 ksi93 + 0.001 ksi94
      + 0.001 ksi95 + 0.001 ksi96 + 0.001 ksi97 + 0.001 ksi98 + 0.001 ksi99
      + 0.001 ksi100 + 0.001 ksi101 + 0.001 ksi102 + 0.001 ksi103
      + 0.001 ksi104 + 0.001 ksi105 + 0.001 ksi106 + 0.001 ksi107
      + 0.001 ksi108 + 0.001 ksi109 + 0.001 ksi110 + 0.001 ksi111
      + 0.001 ksi112 + 0.001 ksi113 + 0.001 ksi114 + 0.001 ksi115
      + 0.001 ksi116 + 0.001 ksi117 + 0.001 ksi118 + 0.001 ksi119
      + 0.001 ksi120 + 0.001 ksi121 + 0.001 ksi122 + 0.001 ksi123
      + 0.001 ksi124 + 0.001 ksi125 + 0.001 ksi126 + 0.001 ksi127
      + 0.001 ksi128 + 0.001 ksi129 + 0.001 ksi130 + 0.001 ksi131
      + 0.001 ksi132 + 0.001 ksi133 + 0.001 ksi134 + 0.001 ksi135
      + 0.001 ksi136 + 0.001 ksi137 + 0.001 ksi138 + 0.001 ksi139
      + 0.001 ksi140 + 0.001 ksi141 + 0.001 ksi142 + 0.001 ksi143
      + 0.001 ksi144 + 0.001 ksi145 + 0.001 ksi146 + 0.001 ksi147
      + 0.001 ksi148 + 0.001 ksi149 + 0.001 ksi150 + 0.001 ksi151
      + 0.001 ksi152 + 0.001 ksi153 + 0.001 ksi154 + 0.001 ksi155
      + 0.001 ksi156 + 0.001 ksi157 + 0.001 ksi158 + 0.001 ksi159
      + 0.001 ksi160 + 0.001 ksi161 + 0.001 ksi162 + 0.001 ksi163
      + 0.001 ksi164 + 0.001 ksi165 + 0.001 ksi166 + 0.001 ksi167
      + 0.001 ksi168 + 0.001 ksi169 + 0.001 ksi170 + 0.001 ksi171
      + 0.001 ksi172 + 0.001 ksi173 + 0.001 ksi174 + 0.001 ksi175
      + 0.001 ksi176 + 0.001 ksi177 + 0.001 ksi178 + 0.001 ksi179
      + 0.001 ksi180 + 0.001 ksi181 + 0.001 ksi182 + 0.001 ksi183
      + 0.001 ksi184 + 0.001 ksi185 + 0.001 ksi186 + 0.001 ksi187
      + 0.001 ksi188 + 0.001 ksi189 + 0.001 ksi190 + 0.001 ksi191
      + 0.001 ksi192 + 0.001 ksi193 + 0.001 ksi194 + 0.001 ksi195
      + 0.001 ksi196 + 0.001 ksi197 + 0.001 ksi198 + 0.001 ksi199
      + 0.001 ksi200 + 0.001 ksi201 + 0.001 ksi202 + 0.001 ksi203
      + 0.001 ksi204 + 0.001 ksi205 + 0.001 ksi206 + 0.001 ksi207
      + 0.001 ksi208 + 0.001 ksi209 + 0.001 ksi210 + 0.001 ksi211
      + 0.001 ksi212 + 0.001 ksi213 + 0.001 ksi214 + 0.001 ksi215
      + 0.001 ksi216 + 0.001 ksi217 + 0.001 ksi218 + 0.001 ksi219
      + 0.001 ksi220 + 0.001 ksi221 + 0.001 ksi222 + 0.001 ksi223
      + 0.001 ksi224 + 0.001 ksi225 + 0.001 ksi226 + 0.001 ksi227
      + 0.001 ksi228 + 0.001 ksi229 + 0.001 ksi230 + 0.001 ksi231
      + 0.001 ksi232 + 0.001 ksi233 + 0.001 ksi234 + 0.001 ksi235
      + 0.001 ksi236 + 0.001 ksi237 + 0.001 ksi238 + 0.001 ksi239
      + 0.001 ksi240 + 0.001 ksi241 + 0.001 ksi242 + 0.001 ksi243
      + 0.001 ksi244 + 0.001 ksi245 + 0.001 ksi246 + 0.001 ksi247
      + 0.001 ksi248 + 0.001 ksi249 + 0.001 ksi250 + 0.001 ksi251
      + 0.001 ksi252 + 0.001 ksi253 + 0.001 ksi254 + 0.001 ksi255
      + 0.001 ksi256 + 0.001 ksi257 + 0.001 ksi258 + 0.001 ksi259
      + 0.001 ksi260 + 0.001 ksi261 + 0.001 ksi262 + 0.001 ksi263
      + 0.001 ksi264 + 0.001 ksi265 + 0.001 ksi266 + 0.001 ksi267
      + 0.001 ksi268 + 0.001 ksi269 + 0.001 ksi270 + 0.001 ksi271
      + 0.001 ksi272 + 0.001 ksi273 + 0.001 ksi274 + 0.001 ksi275
      + 0.001 ksi276 + 0.001 ksi277 + 0.001 ksi278 + 0.001 ksi279
      + 0.001 ksi280 + 0.001 ksi281 + 0.001 ksi282 + 0.001 ksi283
      + 0.001 ksi284 + 0.001 ksi285 + 0.001 ksi286 + 0.001 ksi287
      + 0.001 ksi288 + 0.001 ksi289 + 0.001 ksi290 + 0.001 ksi291
      + 0.001 ksi292 + 0.001 ksi293 + 0.001 ksi294 + 0.001 ksi295
      + 0.001 ksi296 + 0.001 ksi297 + 0.001 ksi298 + 0.001 ksi299
      + 0.001 ksi300 + 0.001 ksi301 + 0.001 ksi302 + 0.001 ksi303
      + 0.001 ksi304 + 0.001 ksi305 + 0.001 ksi306 + 0.001 ksi307
      + 0.001 ksi308 + 0.001 ksi309 + 0.001 ksi310 + 0.001 ksi311
      + 0.001 ksi312 + 0.001 ksi313 + 0.001 ksi314 + 0.001 ksi315
      + 0.001 ksi316 + 0.001 ksi317 + 0.001 ksi318 + 0.001 ksi319
      + 0.001 ksi320 + 0.001 ksi321 + 0.001 ksi322 + 0.001 ksi323
      + 0.001 ksi324 + 0.001 ksi325 + 0.001 ksi326 + 0.001 ksi327
      + 0.001 ksi328 + 0.001 ksi329 + 0.001 ksi330 + 0.001 ksi331
      + 0.001 ksi332 + 0.001 ksi333 + 0.001 ksi334 + 0.001 ksi335
      + 0.001 ksi336 + 0.001 ksi337 + 0.001 ksi338 + 0.001 ksi339
      + 0.001 ksi340 + 0.001 ksi341 + 0.001 ksi342 + 0.001 ksi343
      + 0.001 ksi344 + [ w0 ^2 + w1 ^2 + w2 ^2 + w3 ^2 + w4 ^2 + w5 ^2 ] / 2
Subject To
 c1:   85 w0 + 92 w1 + 45 w2 + 27 w3 + 31 w4 + b + ksi0 >= 1
 c2:   - 85 w0 - 64 w1 - 59 w2 - 32 w3 - 23 w4 - b + ksi1 >= 1
 c3:   - 86 w0 - 54 w1 - 33 w2 - 16 w3 - 54 w4 - b + ksi2 >= 1
 c4:   - 91 w0 - 78 w1 - 34 w2 - 24 w3 - 36 w4 - b + ksi3 >= 1
 c5:   - 87 w0 - 70 w1 - 12 w2 - 28 w3 - 10 w4 - b + ksi4 >= 1
 c6:   - 98 w0 - 55 w1 - 13 w2 - 17 w3 - 17 w4 - b + ksi5 >= 1
 c7:   88 w0 + 62 w1 + 20 w2 + 17 w3 + 9 w4 + 0.5 w5 + b + ksi6 >= 1
 c8:   88 w0 + 67 w1 + 21 w2 + 11 w3 + 11 w4 + 0.5 w5 + b + ksi7 >= 1
 c9:   92 w0 + 54 w1 + 22 w2 + 20 w3 + 7 w4 + 0.5 w5 + b + ksi8 >= 1
 c10:  90 w0 + 60 w1 + 25 w2 + 19 w3 + 5 w4 + 0.5 w5 + b + ksi9 >= 1
 c11:  89 w0 + 52 w1 + 13 w2 + 24 w3 + 15 w4 + 0.5 w5 + b + ksi10 >= 1
 c12:  82 w0 + 62 w1 + 17 w2 + 17 w3 + 15 w4 + 0.5 w5 + b + ksi11 >= 1
 c13:  90 w0 + 64 w1 + 61 w2 + 32 w3 + 13 w4 + 0.5 w5 + b + ksi12 >= 1
 c14:  86 w0 + 77 w1 + 25 w2 + 19 w3 + 18 w4 + 0.5 w5 + b + ksi13 >= 1
 c15:  96 w0 + 67 w1 + 29 w2 + 20 w3 + 11 w4 + 0.5 w5 + b + ksi14 >= 1
 c16:  91 w0 + 78 w1 + 20 w2 + 31 w3 + 18 w4 + 0.5 w5 + b + ksi15 >= 1
 c17:  89 w0 + 67 w1 + 23 w2 + 16 w3 + 10 w4 + 0.5 w5 + b + ksi16 >= 1
 c18:  89 w0 + 79 w1 + 17 w2 + 17 w3 + 16 w4 + 0.5 w5 + b + ksi17 >= 1
 c19:  91 w0 + 107 w1 + 20 w2 + 20 w3 + 56 w4 + 0.5 w5 + b + ksi18 >= 1
 c20:  94 w0 + 116 w1 + 11 w2 + 33 w3 + 11 w4 + 0.5 w5 + b + ksi19 >= 1
 c21:  92 w0 + 59 w1 + 35 w2 + 13 w3 + 19 w4 + 0.5 w5 + b + ksi20 >= 1
 c22:  93 w0 + 23 w1 + 35 w2 + 20 w3 + 20 w4 + 0.5 w5 + b + ksi21 >= 1
 c23:  90 w0 + 60 w1 + 23 w2 + 27 w3 + 5 w4 + 0.5 w5 + b + ksi22 >= 1
 c24:  96 w0 + 68 w1 + 18 w2 + 19 w3 + 19 w4 + 0.5 w5 + b + ksi23 >= 1
 c25:  84 w0 + 80 w1 + 47 w2 + 33 w3 + 97 w4 + 0.5 w5 + b + ksi24 >= 1
 c26:  92 w0 + 70 w1 + 24 w2 + 13 w3 + 26 w4 + 0.5 w5 + b + ksi25 >= 1
 c27:  90 w0 + 47 w1 + 28 w2 + 15 w3 + 18 w4 + 0.5 w5 + b + ksi26 >= 1
 c28:  88 w0 + 66 w1 + 20 w2 + 21 w3 + 10 w4 + 0.5 w5 + b + ksi27 >= 1
 c29:  91 w0 + 102 w1 + 17 w2 + 13 w3 + 19 w4 + 0.5 w5 + b + ksi28 >= 1
 c30:  87 w0 + 41 w1 + 31 w2 + 19 w3 + 16 w4 + 0.5 w5 + b + ksi29 >= 1
 c31:  86 w0 + 79 w1 + 28 w2 + 16 w3 + 17 w4 + 0.5 w5 + b + ksi30 >= 1
 c32:  91 w0 + 57 w1 + 31 w2 + 23 w3 + 42 w4 + 0.5 w5 + b + ksi31 >= 1
 c33:  93 w0 + 77 w1 + 32 w2 + 18 w3 + 29 w4 + 0.5 w5 + b + ksi32 >= 1
 c34:  88 w0 + 96 w1 + 28 w2 + 21 w3 + 40 w4 + 0.5 w5 + b + ksi33 >= 1
 c35:  94 w0 + 65 w1 + 22 w2 + 18 w3 + 11 w4 + 0.5 w5 + b + ksi34 >= 1
 c36:  - 91 w0 - 72 w1 - 155 w2 - 68 w3 - 82 w4 - 0.5 w5 - b + ksi35 >= 1
 c37:  - 85 w0 - 54 w1 - 47 w2 - 33 w3 - 22 w4 - 0.5 w5 - b + ksi36 >= 1
 c38:  - 79 w0 - 39 w1 - 14 w2 - 19 w3 - 9 w4 - 0.5 w5 - b + ksi37 >= 1
 c39:  - 85 w0 - 85 w1 - 25 w2 - 26 w3 - 30 w4 - 0.5 w5 - b + ksi38 >= 1
 c40:  - 89 w0 - 63 w1 - 24 w2 - 20 w3 - 38 w4 - 0.5 w5 - b + ksi39 >= 1
 c41:  - 84 w0 - 92 w1 - 68 w2 - 37 w3 - 44 w4 - 0.5 w5 - b + ksi40 >= 1
 c42:  - 89 w0 - 68 w1 - 26 w2 - 39 w3 - 42 w4 - 0.5 w5 - b + ksi41 >= 1
 c43:  - 89 w0 - 101 w1 - 18 w2 - 25 w3 - 13 w4 - 0.5 w5 - b + ksi42 >= 1
 c44:  - 86 w0 - 84 w1 - 18 w2 - 14 w3 - 16 w4 - 0.5 w5 - b + ksi43 >= 1
 c45:  - 85 w0 - 65 w1 - 25 w2 - 14 w3 - 18 w4 - 0.5 w5 - b + ksi44 >= 1
 c46:  - 88 w0 - 61 w1 - 19 w2 - 21 w3 - 13 w4 - 0.5 w5 - b + ksi45 >= 1
 c47:  - 92 w0 - 56 w1 - 14 w2 - 16 w3 - 10 w4 - 0.5 w5 - b + ksi46 >= 1
 c48:  - 95 w0 - 50 w1 - 29 w2 - 25 w3 - 50 w4 - 0.5 w5 - b + ksi47 >= 1
 c49:  - 91 w0 - 75 w1 - 24 w2 - 22 w3 - 11 w4 - 0.5 w5 - b + ksi48 >= 1
 c50:  - 83 w0 - 40 w1 - 29 w2 - 25 w3 - 38 w4 - 0.5 w5 - b + ksi49 >= 1
 c51:  - 89 w0 - 74 w1 - 19 w2 - 23 w3 - 16 w4 - 0.5 w5 - b + ksi50 >= 1
 c52:  - 85 w0 - 64 w1 - 24 w2 - 22 w3 - 11 w4 - 0.5 w5 - b + ksi51 >= 1
 c53:  - 92 w0 - 57 w1 - 64 w2 - 36 w3 - 90 w4 - 0.5 w5 - b + ksi52 >= 1
 c54:  - 94 w0 - 48 w1 - 11 w2 - 23 w3 - 43 w4 - 0.5 w5 - b + ksi53 >= 1
 c55:  - 87 w0 - 52 w1 - 21 w2 - 19 w3 - 30 w4 - 0.5 w5 - b + ksi54 >= 1
 c56:  - 85 w0 - 65 w1 - 23 w2 - 29 w3 - 15 w4 - 0.5 w5 - b + ksi55 >= 1
 c57:  - 84 w0 - 82 w1 - 21 w2 - 21 w3 - 19 w4 - 0.5 w5 - b + ksi56 >= 1
 c58:  - 88 w0 - 49 w1 - 20 w2 - 22 w3 - 19 w4 - 0.5 w5 - b + ksi57 >= 1
 c59:  - 96 w0 - 67 w1 - 26 w2 - 26 w3 - 36 w4 - 0.5 w5 - b + ksi58 >= 1
 c60:  - 90 w0 - 63 w1 - 24 w2 - 24 w3 - 24 w4 - 0.5 w5 - b + ksi59 >= 1
 c61:  - 90 w0 - 45 w1 - 33 w2 - 34 w3 - 27 w4 - 0.5 w5 - b + ksi60 >= 1
 c62:  - 90 w0 - 72 w1 - 14 w2 - 15 w3 - 18 w4 - 0.5 w5 - b + ksi61 >= 1
 c63:  - 91 w0 - 55 w1 - 4 w2 - 8 w3 - 13 w4 - 0.5 w5 - b + ksi62 >= 1
 c64:  - 91 w0 - 52 w1 - 15 w2 - 22 w3 - 11 w4 - 0.5 w5 - b + ksi63 >= 1
 c65:  87 w0 + 71 w1 + 32 w2 + 19 w3 + 27 w4 + w5 + b + ksi64 >= 1
 c66:  89 w0 + 77 w1 + 26 w2 + 20 w3 + 19 w4 + w5 + b + ksi65 >= 1
 c67:  - 89 w0 - 67 w1 - 5 w2 - 17 w3 - 14 w4 - w5 - b + ksi66 >= 1
 c68:  - 85 w0 - 51 w1 - 26 w2 - 24 w3 - 23 w4 - w5 - b + ksi67 >= 1
 c69:  - 103 w0 - 75 w1 - 19 w2 - 30 w3 - 13 w4 - w5 - b + ksi68 >= 1
 c70:  - 90 w0 - 63 w1 - 16 w2 - 21 w3 - 14 w4 - w5 - b + ksi69 >= 1
 c71:  90 w0 + 63 w1 + 29 w2 + 23 w3 + 57 w4 + 2 w5 + b + ksi70 >= 1
 c72:  90 w0 + 67 w1 + 35 w2 + 19 w3 + 35 w4 + 2 w5 + b + ksi71 >= 1
 c73:  87 w0 + 66 w1 + 27 w2 + 22 w3 + 9 w4 + 2 w5 + b + ksi72 >= 1
 c74:  90 w0 + 73 w1 + 34 w2 + 21 w3 + 22 w4 + 2 w5 + b + ksi73 >= 1
 c75:  86 w0 + 54 w1 + 20 w2 + 21 w3 + 16 w4 + 2 w5 + b + ksi74 >= 1
 c76:  90 w0 + 80 w1 + 19 w2 + 14 w3 + 42 w4 + 2 w5 + b + ksi75 >= 1
 c77:  - 87 w0 - 90 w1 - 43 w2 - 28 w3 - 156 w4 - 2 w5 - b + ksi76 >= 1
 c78:  - 96 w0 - 72 w1 - 28 w2 - 19 w3 - 30 w4 - 2 w5 - b + ksi77 >= 1
 c79:  - 91 w0 - 55 w1 - 9 w2 - 25 w3 - 16 w4 - 2 w5 - b + ksi78 >= 1
 c80:  - 95 w0 - 78 w1 - 27 w2 - 25 w3 - 30 w4 - 2 w5 - b + ksi79 >= 1
 c81:  - 92 w0 - 101 w1 - 34 w2 - 30 w3 - 64 w4 - 2 w5 - b + ksi80 >= 1
 c82:  - 89 w0 - 51 w1 - 41 w2 - 22 w3 - 48 w4 - 2 w5 - b + ksi81 >= 1
 c83:  - 91 w0 - 99 w1 - 42 w2 - 33 w3 - 16 w4 - 2 w5 - b + ksi82 >= 1
 c84:  - 94 w0 - 58 w1 - 21 w2 - 18 w3 - 26 w4 - 2 w5 - b + ksi83 >= 1
 c85:  - 92 w0 - 60 w1 - 30 w2 - 27 w3 - 297 w4 - 2 w5 - b + ksi84 >= 1
 c86:  - 94 w0 - 58 w1 - 21 w2 - 18 w3 - 26 w4 - 2 w5 - b + ksi85 >= 1
 c87:  - 88 w0 - 47 w1 - 33 w2 - 26 w3 - 29 w4 - 2 w5 - b + ksi86 >= 1
 c88:  - 92 w0 - 65 w1 - 17 w2 - 25 w3 - 9 w4 - 2 w5 - b + ksi87 >= 1
 c89:  92 w0 + 79 w1 + 22 w2 + 20 w3 + 11 w4 + 3 w5 + b + ksi88 >= 1
 c90:  84 w0 + 83 w1 + 20 w2 + 25 w3 + 7 w4 + 3 w5 + b + ksi89 >= 1
 c91:  88 w0 + 68 w1 + 27 w2 + 21 w3 + 26 w4 + 3 w5 + b + ksi90 >= 1
 c92:  86 w0 + 48 w1 + 20 w2 + 20 w3 + 6 w4 + 3 w5 + b + ksi91 >= 1
 c93:  99 w0 + 69 w1 + 45 w2 + 32 w3 + 30 w4 + 3 w5 + b + ksi92 >= 1
 c94:  88 w0 + 66 w1 + 23 w2 + 12 w3 + 15 w4 + 3 w5 + b + ksi93 >= 1
 c95:  89 w0 + 62 w1 + 42 w2 + 30 w3 + 20 w4 + 3 w5 + b + ksi94 >= 1
 c96:  90 w0 + 51 w1 + 23 w2 + 17 w3 + 27 w4 + 3 w5 + b + ksi95 >= 1
 c97:  - 81 w0 - 61 w1 - 32 w2 - 37 w3 - 53 w4 - 3 w5 - b + ksi96 >= 1
 c98:  - 89 w0 - 89 w1 - 23 w2 - 18 w3 - 104 w4 - 3 w5 - b + ksi97 >= 1
 c99:  - 89 w0 - 65 w1 - 26 w2 - 18 w3 - 36 w4 - 3 w5 - b + ksi98 >= 1
 c100: - 92 w0 - 75 w1 - 26 w2 - 26 w3 - 24 w4 - 3 w5 - b + ksi99 >= 1
 c101: - 85 w0 - 59 w1 - 25 w2 - 20 w3 - 25 w4 - 3 w5 - b + ksi100 >= 1
 c102: - 92 w0 - 61 w1 - 18 w2 - 13 w3 - 81 w4 - 3 w5 - b + ksi101 >= 1
 c103: 89 w0 + 63 w1 + 22 w2 + 27 w3 + 10 w4 + 4 w5 + b + ksi102 >= 1
 c104: 90 w0 + 84 w1 + 18 w2 + 23 w3 + 13 w4 + 4 w5 + b + ksi103 >= 1
 c105: 88 w0 + 95 w1 + 25 w2 + 19 w3 + 14 w4 + 4 w5 + b + ksi104 >= 1
 c106: 89 w0 + 35 w1 + 27 w2 + 29 w3 + 17 w4 + 4 w5 + b + ksi105 >= 1
 c107: 91 w0 + 80 w1 + 37 w2 + 23 w3 + 27 w4 + 4 w5 + b + ksi106 >= 1
 c108: 91 w0 + 109 w1 + 33 w2 + 15 w3 + 18 w4 + 4 w5 + b + ksi107 >= 1
 c109: 91 w0 + 65 w1 + 17 w2 + 5 w3 + 7 w4 + 4 w5 + b + ksi108 >= 1
 c110: - 88 w0 - 107 w1 - 29 w2 - 20 w3 - 50 w4 - 4 w5 - b + ksi109 >= 1
 c111: - 87 w0 - 76 w1 - 22 w2 - 55 w3 - 9 w4 - 4 w5 - b + ksi110 >= 1
 c112: - 87 w0 - 86 w1 - 28 w2 - 23 w3 - 21 w4 - 4 w5 - b + ksi111 >= 1
 c113: - 87 w0 - 42 w1 - 26 w2 - 23 w3 - 17 w4 - 4 w5 - b + ksi112 >= 1
 c114: - 88 w0 - 80 w1 - 24 w2 - 25 w3 - 17 w4 - 4 w5 - b + ksi113 >= 1
 c115: - 90 w0 - 96 w1 - 34 w2 - 49 w3 - 169 w4 - 4 w5 - b + ksi114 >= 1
 c116: - 86 w0 - 67 w1 - 11 w2 - 15 w3 - 8 w4 - 4 w5 - b + ksi115 >= 1
 c117: - 92 w0 - 40 w1 - 19 w2 - 20 w3 - 21 w4 - 4 w5 - b + ksi116 >= 1
 c118: - 85 w0 - 60 w1 - 17 w2 - 21 w3 - 14 w4 - 4 w5 - b + ksi117 >= 1
 c119: - 89 w0 - 90 w1 - 15 w2 - 17 w3 - 25 w4 - 4 w5 - b + ksi118 >= 1
 c120: - 91 w0 - 57 w1 - 15 w2 - 16 w3 - 16 w4 - 4 w5 - b + ksi119 >= 1
 c121: - 96 w0 - 55 w1 - 48 w2 - 39 w3 - 42 w4 - 4 w5 - b + ksi120 >= 1
 c122: - 79 w0 - 101 w1 - 17 w2 - 27 w3 - 23 w4 - 4 w5 - b + ksi121 >= 1
 c123: - 90 w0 - 134 w1 - 14 w2 - 20 w3 - 14 w4 - 4 w5 - b + ksi122 >= 1
 c124: - 89 w0 - 76 w1 - 14 w2 - 21 w3 - 24 w4 - 4 w5 - b + ksi123 >= 1
 c125: - 88 w0 - 93 w1 - 29 w2 - 27 w3 - 31 w4 - 4 w5 - b + ksi124 >= 1
 c126: - 90 w0 - 67 w1 - 10 w2 - 16 w3 - 16 w4 - 4 w5 - b + ksi125 >= 1
 c127: - 92 w0 - 73 w1 - 24 w2 - 21 w3 - 48 w4 - 4 w5 - b + ksi126 >= 1
 c128: - 91 w0 - 55 w1 - 28 w2 - 28 w3 - 82 w4 - 4 w5 - b + ksi127 >= 1
 c129: - 83 w0 - 45 w1 - 19 w2 - 21 w3 - 13 w4 - 4 w5 - b + ksi128 >= 1
 c130: - 90 w0 - 74 w1 - 19 w2 - 14 w3 - 22 w4 - 4 w5 - b + ksi129 >= 1
 c131: 92 w0 + 66 w1 + 21 w2 + 16 w3 + 33 w4 + 5 w5 + b + ksi130 >= 1
 c132: 93 w0 + 63 w1 + 26 w2 + 18 w3 + 18 w4 + 5 w5 + b + ksi131 >= 1
 c133: - 86 w0 - 78 w1 - 47 w2 - 39 w3 - 107 w4 - 5 w5 - b + ksi132 >= 1
 c134: - 97 w0 - 44 w1 - 113 w2 - 45 w3 - 150 w4 - 5 w5 - b + ksi133 >= 1
 c135: - 87 w0 - 59 w1 - 15 w2 - 19 w3 - 12 w4 - 5 w5 - b + ksi134 >= 1
 c136: - 86 w0 - 44 w1 - 21 w2 - 11 w3 - 15 w4 - 5 w5 - b + ksi135 >= 1
 c137: - 87 w0 - 64 w1 - 16 w2 - 20 w3 - 24 w4 - 5 w5 - b + ksi136 >= 1
 c138: - 92 w0 - 57 w1 - 21 w2 - 23 w3 - 22 w4 - 5 w5 - b + ksi137 >= 1
 c139: - 90 w0 - 70 w1 - 25 w2 - 23 w3 - 112 w4 - 5 w5 - b + ksi138 >= 1
 c140: - 99 w0 - 59 w1 - 17 w2 - 19 w3 - 11 w4 - 5 w5 - b + ksi139 >= 1
 c141: 92 w0 + 80 w1 + 10 w2 + 26 w3 + 20 w4 + 6 w5 + b + ksi140 >= 1
 c142: 95 w0 + 60 w1 + 26 w2 + 22 w3 + 28 w4 + 6 w5 + b + ksi141 >= 1
 c143: 91 w0 + 63 w1 + 25 w2 + 26 w3 + 15 w4 + 6 w5 + b + ksi142 >= 1
 c144: 92 w0 + 62 w1 + 37 w2 + 21 w3 + 36 w4 + 6 w5 + b + ksi143 >= 1
 c145: 95 w0 + 50 w1 + 13 w2 + 14 w3 + 15 w4 + 6 w5 + b + ksi144 >= 1
 c146: 90 w0 + 76 w1 + 37 w2 + 19 w3 + 50 w4 + 6 w5 + b + ksi145 >= 1
 c147: 96 w0 + 70 w1 + 70 w2 + 26 w3 + 36 w4 + 6 w5 + b + ksi146 >= 1
 c148: 95 w0 + 62 w1 + 64 w2 + 42 w3 + 76 w4 + 6 w5 + b + ksi147 >= 1
 c149: 92 w0 + 62 w1 + 20 w2 + 23 w3 + 20 w4 + 6 w5 + b + ksi148 >= 1
 c150: 91 w0 + 63 w1 + 25 w2 + 26 w3 + 15 w4 + 6 w5 + b + ksi149 >= 1
 c151: - 82 w0 - 56 w1 - 67 w2 - 38 w3 - 92 w4 - 6 w5 - b + ksi150 >= 1
 c152: - 92 w0 - 82 w1 - 27 w2 - 24 w3 - 37 w4 - 6 w5 - b + ksi151 >= 1
 c153: - 90 w0 - 63 w1 - 12 w2 - 26 w3 - 21 w4 - 6 w5 - b + ksi152 >= 1
 c154: - 88 w0 - 37 w1 - 9 w2 - 15 w3 - 16 w4 - 6 w5 - b + ksi153 >= 1
 c155: - 100 w0 - 60 w1 - 29 w2 - 23 w3 - 76 w4 - 6 w5 - b + ksi154 >= 1
 c156: - 98 w0 - 43 w1 - 35 w2 - 23 w3 - 69 w4 - 6 w5 - b + ksi155 >= 1
 c157: - 91 w0 - 74 w1 - 87 w2 - 50 w3 - 67 w4 - 6 w5 - b + ksi156 >= 1
 c158: - 92 w0 - 87 w1 - 57 w2 - 25 w3 - 44 w4 - 6 w5 - b + ksi157 >= 1
 c159: - 93 w0 - 99 w1 - 36 w2 - 34 w3 - 48 w4 - 6 w5 - b + ksi158 >= 1
 c160: - 90 w0 - 72 w1 - 17 w2 - 19 w3 - 19 w4 - 6 w5 - b + ksi159 >= 1
 c161: - 97 w0 - 93 w1 - 21 w2 - 20 w3 - 68 w4 - 6 w5 - b + ksi160 >= 1
 c162: - 93 w0 - 50 w1 - 18 w2 - 25 w3 - 17 w4 - 6 w5 - b + ksi161 >= 1
 c163: - 90 w0 - 57 w1 - 20 w2 - 26 w3 - 33 w4 - 6 w5 - b + ksi162 >= 1
 c164: - 92 w0 - 76 w1 - 31 w2 - 28 w3 - 41 w4 - 6 w5 - b + ksi163 >= 1
 c165: - 88 w0 - 55 w1 - 19 w2 - 17 w3 - 14 w4 - 6 w5 - b + ksi164 >= 1
 c166: - 89 w0 - 63 w1 - 24 w2 - 29 w3 - 29 w4 - 6 w5 - b + ksi165 >= 1
 c167: 92 w0 + 79 w1 + 70 w2 + 32 w3 + 84 w4 + 7 w5 + b + ksi166 >= 1
 c168: 92 w0 + 93 w1 + 58 w2 + 35 w3 + 120 w4 + 7 w5 + b + ksi167 >= 1
 c169: - 93 w0 - 84 w1 - 58 w2 - 47 w3 - 62 w4 - 7 w5 - b + ksi168 >= 1
 c170: 97 w0 + 71 w1 + 29 w2 + 22 w3 + 52 w4 + 8 w5 + b + ksi169 >= 1
 c171: 84 w0 + 99 w1 + 33 w2 + 19 w3 + 26 w4 + 8 w5 + b + ksi170 >= 1
 c172: 96 w0 + 44 w1 + 42 w2 + 23 w3 + 73 w4 + 8 w5 + b + ksi171 >= 1
 c173: 90 w0 + 62 w1 + 22 w2 + 21 w3 + 21 w4 + 8 w5 + b + ksi172 >= 1
 c174: 92 w0 + 94 w1 + 18 w2 + 17 w3 + 6 w4 + 8 w5 + b + ksi173 >= 1
 c175: 90 w0 + 67 w1 + 77 w2 + 39 w3 + 114 w4 + 8 w5 + b + ksi174 >= 1
 c176: 97 w0 + 71 w1 + 29 w2 + 22 w3 + 52 w4 + 8 w5 + b + ksi175 >= 1
 c177: - 91 w0 - 69 w1 - 25 w2 - 25 w3 - 66 w4 - 8 w5 - b + ksi176 >= 1
 c178: - 93 w0 - 59 w1 - 17 w2 - 20 w3 - 14 w4 - 8 w5 - b + ksi177 >= 1
 c179: - 92 w0 - 95 w1 - 85 w2 - 48 w3 - 200 w4 - 8 w5 - b + ksi178 >= 1
 c180: - 90 w0 - 50 w1 - 26 w2 - 22 w3 - 53 w4 - 8 w5 - b + ksi179 >= 1
 c181: - 91 w0 - 62 w1 - 59 w2 - 47 w3 - 60 w4 - 8 w5 - b + ksi180 >= 1
 c182: 92 w0 + 93 w1 + 22 w2 + 28 w3 + 123 w4 + 9 w5 + b + ksi181 >= 1
 c183: 92 w0 + 77 w1 + 86 w2 + 41 w3 + 31 w4 + 10 w5 + b + ksi182 >= 1
 c184: - 86 w0 - 66 w1 - 22 w2 - 24 w3 - 26 w4 - 10 w5 - b + ksi183 >= 1
 c185: - 98 w0 - 57 w1 - 31 w2 - 34 w3 - 73 w4 - 10 w5 - b + ksi184 >= 1
 c186: - 95 w0 - 80 w1 - 50 w2 - 64 w3 - 55 w4 - 10 w5 - b + ksi185 >= 1
 c187: - 92 w0 - 108 w1 - 53 w2 - 33 w3 - 94 w4 - 12 w5 - b + ksi186 >= 1
 c188: - 97 w0 - 92 w1 - 22 w2 - 28 w3 - 49 w4 - 12 w5 - b + ksi187 >= 1
 c189: 93 w0 + 77 w1 + 39 w2 + 37 w3 + 108 w4 + 16 w5 + b + ksi188 >= 1
 c190: 94 w0 + 83 w1 + 81 w2 + 34 w3 + 201 w4 + 20 w5 + b + ksi189 >= 1
 c191: 87 w0 + 75 w1 + 25 w2 + 21 w3 + 14 w4 + b + ksi190 >= 1
 c192: 88 w0 + 56 w1 + 23 w2 + 18 w3 + 12 w4 + b + ksi191 >= 1
 c193: - 84 w0 - 97 w1 - 41 w2 - 20 w3 - 32 w4 - b + ksi192 >= 1
 c194: 94 w0 + 91 w1 + 27 w2 + 20 w3 + 15 w4 + 0.5 w5 + b + ksi193 >= 1
 c195: 97 w0 + 62 w1 + 17 w2 + 13 w3 + 5 w4 + 0.5 w5 + b + ksi194 >= 1
 c196: 92 w0 + 85 w1 + 25 w2 + 20 w3 + 12 w4 + 0.5 w5 + b + ksi195 >= 1
 c197: 82 w0 + 48 w1 + 27 w2 + 15 w3 + 12 w4 + 0.5 w5 + b + ksi196 >= 1
 c198: 88 w0 + 74 w1 + 31 w2 + 25 w3 + 15 w4 + 0.5 w5 + b + ksi197 >= 1
 c199: 95 w0 + 77 w1 + 30 w2 + 14 w3 + 21 w4 + 0.5 w5 + b + ksi198 >= 1
 c200: 88 w0 + 94 w1 + 26 w2 + 18 w3 + 8 w4 + 0.5 w5 + b + ksi199 >= 1
 c201: 91 w0 + 70 w1 + 19 w2 + 19 w3 + 22 w4 + 0.5 w5 + b + ksi200 >= 1
 c202: 83 w0 + 54 w1 + 27 w2 + 15 w3 + 12 w4 + 0.5 w5 + b + ksi201 >= 1
 c203: 91 w0 + 105 w1 + 40 w2 + 26 w3 + 56 w4 + 0.5 w5 + b + ksi202 >= 1
 c204: 86 w0 + 79 w1 + 37 w2 + 28 w3 + 14 w4 + 0.5 w5 + b + ksi203 >= 1
 c205: 91 w0 + 96 w1 + 35 w2 + 22 w3 + 135 w4 + 0.5 w5 + b + ksi204 >= 1
 c206: 89 w0 + 82 w1 + 23 w2 + 14 w3 + 35 w4 + 0.5 w5 + b + ksi205 >= 1
 c207: 90 w0 + 73 w1 + 24 w2 + 23 w3 + 11 w4 + 0.5 w5 + b + ksi206 >= 1
 c208: 90 w0 + 87 w1 + 19 w2 + 25 w3 + 19 w4 + 0.5 w5 + b + ksi207 >= 1
 c209: 89 w0 + 82 w1 + 33 w2 + 32 w3 + 18 w4 + 0.5 w5 + b + ksi208 >= 1
 c210: 85 w0 + 79 w1 + 17 w2 + 8 w3 + 9 w4 + 0.5 w5 + b + ksi209 >= 1
 c211: 85 w0 + 119 w1 + 30 w2 + 26 w3 + 17 w4 + 0.5 w5 + b + ksi210 >= 1
 c212: 78 w0 + 69 w1 + 24 w2 + 18 w3 + 31 w4 + 0.5 w5 + b + ksi211 >= 1
 c213: 88 w0 + 107 w1 + 34 w2 + 21 w3 + 27 w4 + 0.5 w5 + b + ksi212 >= 1
 c214: 89 w0 + 115 w1 + 17 w2 + 27 w3 + 7 w4 + 0.5 w5 + b + ksi213 >= 1
 c215: 92 w0 + 67 w1 + 23 w2 + 15 w3 + 12 w4 + 0.5 w5 + b + ksi214 >= 1
 c216: 89 w0 + 101 w1 + 27 w2 + 34 w3 + 14 w4 + 0.5 w5 + b + ksi215 >= 1
 c217: 91 w0 + 84 w1 + 11 w2 + 12 w3 + 10 w4 + 0.5 w5 + b + ksi216 >= 1
 c218: - 94 w0 - 101 w1 - 41 w2 - 20 w3 - 53 w4 - 0.5 w5 - b + ksi217 >= 1
 c219: - 88 w0 - 46 w1 - 29 w2 - 22 w3 - 18 w4 - 0.5 w5 - b + ksi218 >= 1
 c220: - 88 w0 - 122 w1 - 35 w2 - 29 w3 - 42 w4 - 0.5 w5 - b + ksi219 >= 1
 c221: - 84 w0 - 88 w1 - 28 w2 - 25 w3 - 35 w4 - 0.5 w5 - b + ksi220 >= 1
 c222: - 90 w0 - 79 w1 - 18 w2 - 15 w3 - 24 w4 - 0.5 w5 - b + ksi221 >= 1
 c223: - 87 w0 - 69 w1 - 22 w2 - 26 w3 - 11 w4 - 0.5 w5 - b + ksi222 >= 1
 c224: - 65 w0 - 63 w1 - 19 w2 - 20 w3 - 14 w4 - 0.5 w5 - b + ksi223 >= 1
 c225: - 90 w0 - 64 w1 - 12 w2 - 17 w3 - 14 w4 - 0.5 w5 - b + ksi224 >= 1
 c226: - 85 w0 - 58 w1 - 18 w2 - 24 w3 - 16 w4 - 0.5 w5 - b + ksi225 >= 1
 c227: - 88 w0 - 81 w1 - 41 w2 - 27 w3 - 36 w4 - 0.5 w5 - b + ksi226 >= 1
 c228: - 86 w0 - 78 w1 - 52 w2 - 29 w3 - 62 w4 - 0.5 w5 - b + ksi227 >= 1
 c229: - 82 w0 - 74 w1 - 38 w2 - 28 w3 - 48 w4 - 0.5 w5 - b + ksi228 >= 1
 c230: - 86 w0 - 58 w1 - 36 w2 - 27 w3 - 59 w4 - 0.5 w5 - b + ksi229 >= 1
 c231: - 94 w0 - 56 w1 - 30 w2 - 18 w3 - 27 w4 - 0.5 w5 - b + ksi230 >= 1
 c232: - 87 w0 - 57 w1 - 30 w2 - 30 w3 - 22 w4 - 0.5 w5 - b + ksi231 >= 1
 c233: - 98 w0 - 74 w1 - 148 w2 - 75 w3 - 159 w4 - 0.5 w5 - b + ksi232 >= 1
 c234: - 94 w0 - 75 w1 - 20 w2 - 25 w3 - 38 w4 - 0.5 w5 - b + ksi233 >= 1
 c235: - 83 w0 - 68 w1 - 17 w2 - 20 w3 - 71 w4 - 0.5 w5 - b + ksi234 >= 1
 c236: - 93 w0 - 56 w1 - 25 w2 - 21 w3 - 33 w4 - 0.5 w5 - b + ksi235 >= 1
 c237: - 101 w0 - 65 w1 - 18 w2 - 21 w3 - 22 w4 - 0.5 w5 - b + ksi236 >= 1
 c238: - 92 w0 - 65 w1 - 25 w2 - 20 w3 - 31 w4 - 0.5 w5 - b + ksi237 >= 1
 c239: - 92 w0 - 58 w1 - 14 w2 - 16 w3 - 13 w4 - 0.5 w5 - b + ksi238 >= 1
 c240: - 86 w0 - 58 w1 - 16 w2 - 23 w3 - 23 w4 - 0.5 w5 - b + ksi239 >= 1
 c241: - 85 w0 - 62 w1 - 15 w2 - 13 w3 - 22 w4 - 0.5 w5 - b + ksi240 >= 1
 c242: - 86 w0 - 57 w1 - 13 w2 - 20 w3 - 13 w4 - 0.5 w5 - b + ksi241 >= 1
 c243: - 86 w0 - 54 w1 - 26 w2 - 30 w3 - 13 w4 - 0.5 w5 - b + ksi242 >= 1
 c244: 81 w0 + 41 w1 + 33 w2 + 27 w3 + 34 w4 + w5 + b + ksi243 >= 1
 c245: 91 w0 + 67 w1 + 32 w2 + 26 w3 + 13 w4 + w5 + b + ksi244 >= 1
 c246: 91 w0 + 80 w1 + 21 w2 + 19 w3 + 14 w4 + w5 + b + ksi245 >= 1
 c247: 92 w0 + 60 w1 + 23 w2 + 15 w3 + 19 w4 + w5 + b + ksi246 >= 1
 c248: 91 w0 + 60 w1 + 32 w2 + 14 w3 + 8 w4 + w5 + b + ksi247 >= 1
 c249: 93 w0 + 65 w1 + 28 w2 + 22 w3 + 10 w4 + w5 + b + ksi248 >= 1
 c250: - 90 w0 - 63 w1 - 45 w2 - 24 w3 - 85 w4 - w5 - b + ksi249 >= 1
 c251: - 87 w0 - 92 w1 - 21 w2 - 22 w3 - 37 w4 - w5 - b + ksi250 >= 1
 c252: - 83 w0 - 78 w1 - 31 w2 - 19 w3 - 115 w4 - w5 - b + ksi251 >= 1
 c253: - 95 w0 - 62 w1 - 24 w2 - 23 w3 - 14 w4 - w5 - b + ksi252 >= 1
 c254: - 93 w0 - 59 w1 - 41 w2 - 30 w3 - 48 w4 - w5 - b + ksi253 >= 1
 c255: 84 w0 + 82 w1 + 43 w2 + 32 w3 + 38 w4 + 2 w5 + b + ksi254 >= 1
 c256: 87 w0 + 71 w1 + 33 w2 + 20 w3 + 22 w4 + 2 w5 + b + ksi255 >= 1
 c257: 86 w0 + 44 w1 + 24 w2 + 15 w3 + 18 w4 + 2 w5 + b + ksi256 >= 1
 c258: 86 w0 + 66 w1 + 28 w2 + 24 w3 + 21 w4 + 2 w5 + b + ksi257 >= 1
 c259: 88 w0 + 58 w1 + 31 w2 + 17 w3 + 17 w4 + 2 w5 + b + ksi258 >= 1
 c260: 90 w0 + 61 w1 + 28 w2 + 29 w3 + 31 w4 + 2 w5 + b + ksi259 >= 1
 c261: 88 w0 + 69 w1 + 70 w2 + 24 w3 + 64 w4 + 2 w5 + b + ksi260 >= 1
 c262: 93 w0 + 87 w1 + 18 w2 + 17 w3 + 26 w4 + 2 w5 + b + ksi261 >= 1
 c263: 98 w0 + 58 w1 + 33 w2 + 21 w3 + 28 w4 + 2 w5 + b + ksi262 >= 1
 c264: - 91 w0 - 44 w1 - 18 w2 - 18 w3 - 23 w4 - 2 w5 - b + ksi263 >= 1
 c265: - 87 w0 - 75 w1 - 37 w2 - 19 w3 - 70 w4 - 2 w5 - b + ksi264 >= 1
 c266: - 94 w0 - 91 w1 - 30 w2 - 26 w3 - 25 w4 - 2 w5 - b + ksi265 >= 1
 c267: - 88 w0 - 85 w1 - 14 w2 - 15 w3 - 10 w4 - 2 w5 - b + ksi266 >= 1
 c268: - 89 w0 - 109 w1 - 26 w2 - 25 w3 - 27 w4 - 2 w5 - b + ksi267 >= 1
 c269: - 87 w0 - 59 w1 - 37 w2 - 27 w3 - 34 w4 - 2 w5 - b + ksi268 >= 1
 c270: - 93 w0 - 58 w1 - 20 w2 - 23 w3 - 18 w4 - 2 w5 - b + ksi269 >= 1
 c271: - 88 w0 - 57 w1 - 9 w2 - 15 w3 - 16 w4 - 2 w5 - b + ksi270 >= 1
 c272: 94 w0 + 65 w1 + 38 w2 + 27 w3 + 17 w4 + 3 w5 + b + ksi271 >= 1
 c273: 91 w0 + 71 w1 + 12 w2 + 22 w3 + 11 w4 + 3 w5 + b + ksi272 >= 1
 c274: 90 w0 + 55 w1 + 20 w2 + 20 w3 + 16 w4 + 3 w5 + b + ksi273 >= 1
 c275: - 91 w0 - 64 w1 - 21 w2 - 17 w3 - 26 w4 - 3 w5 - b + ksi274 >= 1
 c276: - 88 w0 - 47 w1 - 35 w2 - 26 w3 - 33 w4 - 3 w5 - b + ksi275 >= 1
 c277: - 82 w0 - 72 w1 - 31 w2 - 20 w3 - 84 w4 - 3 w5 - b + ksi276 >= 1
 c278: - 85 w0 - 58 w1 - 83 w2 - 49 w3 - 51 w4 - 3 w5 - b + ksi277 >= 1
 c279: 91 w0 + 54 w1 + 25 w2 + 22 w3 + 35 w4 + 4 w5 + b + ksi278 >= 1
 c280: - 98 w0 - 50 w1 - 27 w2 - 25 w3 - 53 w4 - 4 w5 - b + ksi279 >= 1
 c281: - 86 w0 - 62 w1 - 29 w2 - 21 w3 - 26 w4 - 4 w5 - b + ksi280 >= 1
 c282: - 89 w0 - 48 w1 - 32 w2 - 22 w3 - 14 w4 - 4 w5 - b + ksi281 >= 1
 c283: - 82 w0 - 68 w1 - 20 w2 - 22 w3 - 9 w4 - 4 w5 - b + ksi282 >= 1
 c284: - 83 w0 - 70 w1 - 17 w2 - 19 w3 - 23 w4 - 4 w5 - b + ksi283 >= 1
 c285: - 96 w0 - 70 w1 - 21 w2 - 26 w3 - 21 w4 - 4 w5 - b + ksi284 >= 1
 c286: - 94 w0 - 117 w1 - 77 w2 - 56 w3 - 52 w4 - 4 w5 - b + ksi285 >= 1
 c287: - 93 w0 - 45 w1 - 11 w2 - 14 w3 - 21 w4 - 4 w5 - b + ksi286 >= 1
 c288: - 93 w0 - 49 w1 - 27 w2 - 21 w3 - 29 w4 - 4 w5 - b + ksi287 >= 1
 c289: - 84 w0 - 73 w1 - 46 w2 - 32 w3 - 39 w4 - 4 w5 - b + ksi288 >= 1
 c290: - 91 w0 - 63 w1 - 17 w2 - 17 w3 - 46 w4 - 4 w5 - b + ksi289 >= 1
 c291: - 90 w0 - 57 w1 - 31 w2 - 18 w3 - 37 w4 - 4 w5 - b + ksi290 >= 1
 c292: - 87 w0 - 45 w1 - 19 w2 - 13 w3 - 16 w4 - 4 w5 - b + ksi291 >= 1
 c293: - 91 w0 - 68 w1 - 14 w2 - 20 w3 - 19 w4 - 4 w5 - b + ksi292 >= 1
 c294: - 86 w0 - 55 w1 - 29 w2 - 35 w3 - 108 w4 - 4 w5 - b + ksi293 >= 1
 c295: - 91 w0 - 86 w1 - 52 w2 - 47 w3 - 52 w4 - 4 w5 - b + ksi294 >= 1
 c296: - 88 w0 - 46 w1 - 15 w2 - 33 w3 - 55 w4 - 4 w5 - b + ksi295 >= 1
 c297: - 85 w0 - 52 w1 - 22 w2 - 23 w3 - 34 w4 - 4 w5 - b + ksi296 >= 1
 c298: - 89 w0 - 72 w1 - 33 w2 - 27 w3 - 55 w4 - 4 w5 - b + ksi297 >= 1
 c299: - 95 w0 - 59 w1 - 23 w2 - 18 w3 - 19 w4 - 4 w5 - b + ksi298 >= 1
 c300: - 94 w0 - 43 w1 - 154 w2 - 82 w3 - 121 w4 - 4 w5 - b + ksi299 >= 1
 c301: - 96 w0 - 56 w1 - 38 w2 - 26 w3 - 23 w4 - 5 w5 - b + ksi300 >= 1
 c302: - 90 w0 - 52 w1 - 10 w2 - 17 w3 - 12 w4 - 5 w5 - b + ksi301 >= 1
 c303: - 94 w0 - 45 w1 - 20 w2 - 16 w3 - 12 w4 - 5 w5 - b + ksi302 >= 1
 c304: - 99 w0 - 42 w1 - 14 w2 - 21 w3 - 49 w4 - 5 w5 - b + ksi303 >= 1
 c305: - 93 w0 - 102 w1 - 47 w2 - 23 w3 - 37 w4 - 5 w5 - b + ksi304 >= 1
 c306: - 94 w0 - 71 w1 - 25 w2 - 26 w3 - 31 w4 - 5 w5 - b + ksi305 >= 1
 c307: - 92 w0 - 73 w1 - 33 w2 - 34 w3 - 115 w4 - 5 w5 - b + ksi306 >= 1
 c308: 87 w0 + 54 w1 + 41 w2 + 29 w3 + 23 w4 + 6 w5 + b + ksi307 >= 1
 c309: 92 w0 + 67 w1 + 15 w2 + 14 w3 + 14 w4 + 6 w5 + b + ksi308 >= 1
 c310: 98 w0 + 101 w1 + 31 w2 + 26 w3 + 32 w4 + 6 w5 + b + ksi309 >= 1
 c311: 92 w0 + 53 w1 + 51 w2 + 33 w3 + 92 w4 + 6 w5 + b + ksi310 >= 1
 c312: 97 w0 + 94 w1 + 43 w2 + 43 w3 + 82 w4 + 6 w5 + b + ksi311 >= 1
 c313: 93 w0 + 43 w1 + 11 w2 + 16 w3 + 54 w4 + 6 w5 + b + ksi312 >= 1
 c314: 93 w0 + 68 w1 + 24 w2 + 18 w3 + 19 w4 + 6 w5 + b + ksi313 >= 1
 c315: 95 w0 + 36 w1 + 38 w2 + 19 w3 + 15 w4 + 6 w5 + b + ksi314 >= 1
 c316: 99 w0 + 86 w1 + 58 w2 + 42 w3 + 203 w4 + 6 w5 + b + ksi315 >= 1
 c317: 98 w0 + 66 w1 + 103 w2 + 57 w3 + 114 w4 + 6 w5 + b + ksi316 >= 1
 c318: 92 w0 + 80 w1 + 10 w2 + 26 w3 + 20 w4 + 6 w5 + b + ksi317 >= 1
 c319: - 96 w0 - 74 w1 - 27 w2 - 25 w3 - 43 w4 - 6 w5 - b + ksi318 >= 1
 c320: - 95 w0 - 93 w1 - 21 w2 - 27 w3 - 47 w4 - 6 w5 - b + ksi319 >= 1
 c321: - 86 w0 - 109 w1 - 16 w2 - 22 w3 - 28 w4 - 6 w5 - b + ksi320 >= 1
 c322: - 91 w0 - 46 w1 - 30 w2 - 24 w3 - 39 w4 - 7 w5 - b + ksi321 >= 1
 c323: - 102 w0 - 82 w1 - 34 w2 - 78 w3 - 203 w4 - 7 w5 - b + ksi322 >= 1
 c324: - 85 w0 - 50 w1 - 12 w2 - 18 w3 - 14 w4 - 7 w5 - b + ksi323 >= 1
 c325: 91 w0 + 57 w1 + 33 w2 + 23 w3 + 12 w4 + 8 w5 + b + ksi324 >= 1
 c326: 91 w0 + 52 w1 + 76 w2 + 32 w3 + 24 w4 + 8 w5 + b + ksi325 >= 1
 c327: 93 w0 + 70 w1 + 46 w2 + 30 w3 + 33 w4 + 8 w5 + b + ksi326 >= 1
 c328: 87 w0 + 55 w1 + 36 w2 + 19 w3 + 25 w4 + 8 w5 + b + ksi327 >= 1
 c329: 98 w0 + 123 w1 + 28 w2 + 24 w3 + 31 w4 + 8 w5 + b + ksi328 >= 1
 c330: - 82 w0 - 55 w1 - 18 w2 - 23 w3 - 44 w4 - 8 w5 - b + ksi329 >= 1
 c331: - 95 w0 - 73 w1 - 20 w2 - 25 w3 - 225 w4 - 8 w5 - b + ksi330 >= 1
 c332: - 97 w0 - 80 w1 - 17 w2 - 20 w3 - 53 w4 - 8 w5 - b + ksi331 >= 1
 c333: - 100 w0 - 83 w1 - 25 w2 - 24 w3 - 28 w4 - 8 w5 - b + ksi332 >= 1
 c334: - 88 w0 - 91 w1 - 56 w2 - 35 w3 - 126 w4 - 9 w5 - b + ksi333 >= 1
 c335: 91 w0 + 138 w1 + 45 w2 + 21 w3 + 48 w4 + 10 w5 + b + ksi334 >= 1
 c336: 92 w0 + 41 w1 + 37 w2 + 22 w3 + 37 w4 + 10 w5 + b + ksi335 >= 1
 c337: - 86 w0 - 123 w1 - 20 w2 - 25 w3 - 23 w4 - 10 w5 - b + ksi336 >= 1
 c338: - 91 w0 - 93 w1 - 35 w2 - 34 w3 - 37 w4 - 10 w5 - b + ksi337 >= 1
 c339: - 87 w0 - 87 w1 - 15 w2 - 23 w3 - 11 w4 - 10 w5 - b + ksi338 >= 1
 c340: - 87 w0 - 56 w1 - 52 w2 - 43 w3 - 55 w4 - 10 w5 - b + ksi339 >= 1
 c341: 99 w0 + 75 w1 + 26 w2 + 24 w3 + 41 w4 + 12 w5 + b + ksi340 >= 1
 c342: - 96 w0 - 69 w1 - 53 w2 - 43 w3 - 203 w4 - 12 w5 - b + ksi341 >= 1
 c343: 98 w0 + 77 w1 + 55 w2 + 35 w3 + 89 w4 + 15 w5 + b + ksi342 >= 1
 c344: 91 w0 + 68 w1 + 27 w2 + 26 w3 + 14 w4 + 16 w5 + b + ksi343 >= 1
 c345: 98 w0 + 99 w1 + 57 w2 + 45 w3 + 65 w4 + 20 w5 + b + ksi344 >= 1
Bounds
-1 <= b <= 1
End
